24
1 0 27
2 0 22
2 1 16
3 0 27
3 1 24
3 2 30
4 0 2
4 1 8
4 2 6
4 3 3
5 0 15
5 1 7
5 2 2
5 3 3
5 4 23
6 0 3
6 1 13
6 2 1
6 3 28
6 4 10
6 5 3
7 0 19
7 1 13
7 2 21
7 3 29
7 4 30
7 5 28
7 6 3
8 0 30
8 1 14
8 2 7
8 3 14
8 4 24
8 5 17
8 6 14
8 7 10
9 0 21
9 1 2
9 2 29
9 3 29
9 4 1
9 5 14
9 6 9
9 7 5
9 8 16
10 0 8
10 1 3
10 2 10
10 3 4
10 4 26
10 5 15
10 6 29
10 7 28
10 8 7
10 9 10
11 0 12
11 1 2
11 2 16
11 3 3
11 4 9
11 5 4
11 6 29
11 7 30
11 8 28
11 9 29
11 10 8
12 0 17
12 1 6
12 2 5
12 3 28
12 4 3
12 5 24
12 6 28
12 7 16
12 8 7
12 9 18
12 10 15
12 11 14
13 0 29
13 1 7
13 2 12
13 3 29
13 4 19
13 5 9
13 6 3
13 7 26
13 8 23
13 9 28
13 10 17
13 11 7
13 12 26
14 0 18
14 1 12
14 2 22
14 3 11
14 4 6
14 5 2
14 6 20
14 7 19
14 8 26
14 9 7
14 10 24
14 11 9
14 12 6
14 13 9
15 0 17
15 1 19
15 2 22
15 3 28
15 4 24
15 5 26
15 6 28
15 7 19
15 8 30
15 9 8
15 10 27
15 11 15
15 12 6
15 13 16
15 14 15
16 0 10
16 1 7
16 2 30
16 3 1
16 4 19
16 5 22
16 6 15
16 7 6
16 8 9
16 9 24
16 10 29
16 11 2
16 12 6
16 13 29
16 14 5
16 15 15
17 0 17
17 1 6
17 2 30
17 3 9
17 4 5
17 5 8
17 6 9
17 7 11
17 8 25
17 9 4
17 10 8
17 11 13
17 12 7
17 13 12
17 14 24
17 15 1
17 16 13
18 0 14
18 1 3
18 2 4
18 3 30
18 4 5
18 5 30
18 6 11
18 7 14
18 8 21
18 9 11
18 10 11
18 11 16
18 12 18
18 13 6
18 14 21
18 15 11
18 16 6
18 17 9
19 0 17
19 1 21
19 2 12
19 3 29
19 4 30
19 5 20
19 6 23
19 7 22
19 8 14
19 9 23
19 10 25
19 11 2
19 12 26
19 13 5
19 14 4
19 15 20
19 16 21
19 17 1
19 18 1
20 0 11
20 1 16
20 2 8
20 3 27
20 4 12
20 5 3
20 6 9
20 7 13
20 8 23
20 9 26
20 10 23
20 11 1
20 12 28
20 13 23
20 14 19
20 15 26
20 16 23
20 17 13
20 18 24
20 19 7
21 0 1
21 1 28
21 2 7
21 3 22
21 4 15
21 5 10
21 6 8
21 7 18
21 8 12
21 9 11
21 10 26
21 11 26
21 12 24
21 13 13
21 14 9
21 15 2
21 16 17
21 17 24
21 18 3
21 19 11
21 20 17
22 0 30
22 1 8
22 2 15
22 3 2
22 4 26
22 5 23
22 6 6
22 7 3
22 8 28
22 9 28
22 10 11
22 11 30
22 12 26
22 13 10
22 14 24
22 15 30
22 16 15
22 17 5
22 18 25
22 19 4
22 20 9
22 21 14
23 0 10
23 1 19
23 2 13
23 3 11
23 4 26
23 5 12
23 6 29
23 7 10
23 8 2
23 9 15
23 10 19
23 11 3
23 12 15
23 13 19
23 14 5
23 15 19
23 16 12
23 17 1
23 18 10
23 19 30
23 20 6
23 21 4
23 22 5
